NAME : 10_3_3_3_(33).dat
COMMENT : Henke, Speranza, Wäscher, 2015
TYPE : MCVRP
DIMENSION : 11
EDGE_WEIGHT_TYPE : DISTANCE_MATRIX
CAPACITY : 1000
VEHICLES : 2
PRODUCT TYPES : 3
COMPARTMENTS : 3
NODE_COORD_SECTION
1 50 50
2 37.15 61.3
3 41.47 24.82
4 26.23 47.11
5 68.36 32.92
6 50.52 77.62
7 19.3 39.43
8 48.17 53.75
9 47.65 36.77
10 42.12 44.12
11 33.03 64.14
DEMAND_SECTION
1 0 0 0
2 43 51 2
3 100 7 27
4 36 24 20
5 64 37 12
6 123 66 18
7 64 45 39
8 20 45 48
9 86 13 6
10 46 35 49
11 64 65 35
DEPOT_SECTION
1
EOF